p cnf 15 20
15 13 7 0
-15 -11 -10 0
15 11 -4 0
15 8 -1 0
-15 7 -6 0
15 4 -1 0
-14 13 -6 0
14 12 6 0
-14 -11 3 0
13 -11 5 0
-13 10 -2 0
-13 -5 -2 0
-12 -11 6 0
-12 6 -5 0
12 6 -3 0
11 -9 4 0
11 -7 5 0
10 -5 3 0
-8 7 6 0
7 -4 -2 0
